//Dat File

outFile="MPVSBPP_SET1_IT200_ITV1_NT2_TS3_WT1_VT1_REP5";
m=200;
o=96;
p=3;
numVTypes=3;

demand = [10, 4, 3, 11, 10, 6, 1, 10, 2, 5, 9, 1, 3, 8, 9, 6, 2, 2, 5, 3, 6, 4, 10, 11, 6, 2, 3, 8, 2, 1, 4, 3, 11, 9, 10, 4, 2, 9, 1, 3, 5, 10, 8, 4, 6, 10, 9, 4, 9, 7, 9, 11, 2, 11, 9, 3, 7, 7, 11, 11, 9, 3, 11, 6, 11, 6, 1, 8, 2, 3, 6, 4, 11, 7, 2, 3, 10, 10, 4, 11, 10, 1, 11, 7, 5, 10, 4, 2, 3, 9, 10, 2, 6, 5, 10, 3, 2, 8, 6, 6, 4, 5, 1, 1, 2, 10, 1, 11, 9, 5, 10, 9, 4, 10, 4, 3, 1, 2, 6, 11, 5, 10, 1, 1, 1, 9, 10, 11, 9, 7, 5, 11, 4, 7, 3, 6, 5, 9, 10, 2, 3, 11, 1, 6, 1, 7, 9, 8, 4, 2, 14, 12, 16, 18, 19, 14, 14, 17, 17, 19, 16, 12, 17, 19, 19, 16, 13, 17, 13, 13, 16, 18, 14, 19, 16, 19, 13, 15, 15, 12, 16, 17, 16, 18, 18, 16, 14, 19, 18, 18, 12, 18, 12, 13, 12, 14, 12, 13, 15, 12];
Depot_Cap = [30000, 30000, 30000];
Tarif = [10, 3, 7];
VeicVolume = [100, 150, 200];
VeicCost = [100, 120, 140];
VeicType = [1, 1, 1, 1, 1, 1, 1, 1, 1, 1, 1, 1, 1, 1, 1, 1, 1, 1, 1, 1, 1, 1, 1, 1, 1, 1, 1, 1, 1, 1, 1, 1, 2, 2, 2, 2, 2, 2, 2, 2, 2, 2, 2, 2, 2, 2, 2, 2, 2, 2, 2, 2, 2, 2, 2, 2, 2, 2, 2, 2, 2, 2, 2, 2, 3, 3, 3, 3, 3, 3, 3, 3, 3, 3, 3, 3, 3, 3, 3, 3, 3, 3, 3, 3, 3, 3, 3, 3, 3, 3, 3, 3, 3, 3, 3, 3];
Elect_vehicle = [[70, 100, 30], [70, 100, 30], [70, 100, 30], [70, 100, 30], [70, 100, 30], [70, 100, 30], [70, 100, 30], [70, 100, 30], [70, 100, 30], [70, 100, 30], [70, 100, 30], [70, 100, 30], [70, 100, 30], [70, 100, 30], [70, 100, 30], [70, 100, 30], [70, 100, 30], [70, 100, 30], [70, 100, 30], [70, 100, 30], [70, 100, 30], [70, 100, 30], [70, 100, 30], [70, 100, 30], [70, 100, 30], [70, 100, 30], [70, 100, 30], [70, 100, 30], [70, 100, 30], [70, 100, 30], [70, 100, 30], [70, 100, 30], [80, 120, 30], [80, 120, 30], [80, 120, 30], [80, 120, 30], [80, 120, 30], [80, 120, 30], [80, 120, 30], [80, 120, 30], [80, 120, 30], [80, 120, 30], [80, 120, 30], [80, 120, 30], [80, 120, 30], [80, 120, 30], [80, 120, 30], [80, 120, 30], [80, 120, 30], [80, 120, 30], [80, 120, 30], [80, 120, 30], [80, 120, 30], [80, 120, 30], [80, 120, 30], [80, 120, 30], [80, 120, 30], [80, 120, 30], [80, 120, 30], [80, 120, 30], [80, 120, 30], [80, 120, 30], [80, 120, 30], [80, 120, 30], [90, 140, 40], [90, 140, 40], [90, 140, 40], [90, 140, 40], [90, 140, 40], [90, 140, 40], [90, 140, 40], [90, 140, 40], [90, 140, 40], [90, 140, 40], [90, 140, 40], [90, 140, 40], [90, 140, 40], [90, 140, 40], [90, 140, 40], [90, 140, 40], [90, 140, 40], [90, 140, 40], [90, 140, 40], [90, 140, 40], [90, 140, 40], [90, 140, 40], [90, 140, 40], [90, 140, 40], [90, 140, 40], [90, 140, 40], [90, 140, 40], [90, 140, 40], [90, 140, 40], [90, 140, 40], [90, 140, 40], [90, 140, 40]];